NAME          
ROWS
 N  OBJ
 G  c1
 G  c2
 G  c3
 G  c4
 G  c5
 G  c6
 G  c7
 G  c8
 G  c9
 G  c10
 G  c11
 G  c12
 G  c13
 G  c14
 G  c15
 G  c16
 G  c17
 G  c18
 G  c19
 G  c20
 G  c21
 G  c22
 G  c23
 G  c24
 G  c25
 G  c26
 G  c27
 G  c28
 G  c29
 G  c30
 G  c31
 G  c32
 G  c33
 G  c34
 G  c35
 G  c36
 G  c37
 G  c38
 G  c39
 G  c40
COLUMNS
    MARKER    'MARKER'                 'INTORG'
    x[1]      c9        1
    x[1]      c17       1
    x[1]      c18       1
    x[1]      c19       1
    x[1]      c34       1
    x[1]      OBJ       1
    x[2]      c8        1
    x[2]      c13       1
    x[2]      c15       1
    x[2]      c17       1
    x[2]      c19       1
    x[2]      c23       1
    x[2]      c25       1
    x[2]      c27       1
    x[2]      c32       1
    x[2]      c34       1
    x[2]      c39       1
    x[2]      OBJ       1
    x[3]      c1        1
    x[3]      c2        1
    x[3]      c7        1
    x[3]      c8        1
    x[3]      c12       1
    x[3]      c13       1
    x[3]      c14       1
    x[3]      c15       1
    x[3]      c18       1
    x[3]      c25       1
    x[3]      c29       1
    x[3]      c32       1
    x[3]      c39       1
    x[3]      OBJ       1
    x[4]      c1        1
    x[4]      c3        1
    x[4]      c8        1
    x[4]      c13       1
    x[4]      c14       1
    x[4]      c15       1
    x[4]      c16       1
    x[4]      c22       1
    x[4]      c27       1
    x[4]      OBJ       1
    x[5]      c1        1
    x[5]      c4        1
    x[5]      c6        1
    x[5]      c7        1
    x[5]      c17       1
    x[5]      c18       1
    x[5]      c23       1
    x[5]      c28       1
    x[5]      OBJ       1
    x[6]      c8        1
    x[6]      c11       1
    x[6]      c18       1
    x[6]      c28       1
    x[6]      c35       1
    x[6]      c40       1
    x[6]      OBJ       1
    x[7]      c9        1
    x[7]      c22       1
    x[7]      c27       1
    x[7]      c35       1
    x[7]      c36       1
    x[7]      OBJ       1
    x[8]      c4        1
    x[8]      c13       1
    x[8]      c21       1
    x[8]      c23       1
    x[8]      c32       1
    x[8]      c34       1
    x[8]      c37       1
    x[8]      OBJ       1
    x[9]      c10       1
    x[9]      c16       1
    x[9]      c18       1
    x[9]      c21       1
    x[9]      c31       1
    x[9]      c34       1
    x[9]      c35       1
    x[9]      c37       1
    x[9]      OBJ       1
    x[10]     c1        1
    x[10]     c4        1
    x[10]     c7        1
    x[10]     c8        1
    x[10]     c15       1
    x[10]     c17       1
    x[10]     c32       1
    x[10]     c33       1
    x[10]     c35       1
    x[10]     c36       1
    x[10]     OBJ       1
    x[11]     c5        1
    x[11]     c8        1
    x[11]     c13       1
    x[11]     c18       1
    x[11]     c20       1
    x[11]     c25       1
    x[11]     c33       1
    x[11]     c34       1
    x[11]     c35       1
    x[11]     OBJ       1
    x[12]     c1        1
    x[12]     c3        1
    x[12]     c9        1
    x[12]     c14       1
    x[12]     c22       1
    x[12]     c25       1
    x[12]     c31       1
    x[12]     OBJ       1
    x[13]     c2        1
    x[13]     c19       1
    x[13]     c37       1
    x[13]     OBJ       1
    x[14]     c2        1
    x[14]     c3        1
    x[14]     c7        1
    x[14]     c19       1
    x[14]     c21       1
    x[14]     c23       1
    x[14]     c25       1
    x[14]     c27       1
    x[14]     c30       1
    x[14]     c37       1
    x[14]     c39       1
    x[14]     OBJ       1
    x[15]     c2        1
    x[15]     c9        1
    x[15]     c11       1
    x[15]     c12       1
    x[15]     c16       1
    x[15]     c17       1
    x[15]     c20       1
    x[15]     c27       1
    x[15]     c32       1
    x[15]     OBJ       1
    x[16]     c4        1
    x[16]     c9        1
    x[16]     c10       1
    x[16]     c13       1
    x[16]     c14       1
    x[16]     c20       1
    x[16]     c23       1
    x[16]     c26       1
    x[16]     OBJ       1
    x[17]     c9        1
    x[17]     c12       1
    x[17]     c15       1
    x[17]     c19       1
    x[17]     c20       1
    x[17]     c24       1
    x[17]     c25       1
    x[17]     c31       1
    x[17]     c34       1
    x[17]     c35       1
    x[17]     c38       1
    x[17]     OBJ       1
    x[18]     c2        1
    x[18]     c5        1
    x[18]     c13       1
    x[18]     c28       1
    x[18]     c34       1
    x[18]     c38       1
    x[18]     OBJ       1
    x[19]     c10       1
    x[19]     c12       1
    x[19]     c14       1
    x[19]     c15       1
    x[19]     c16       1
    x[19]     c20       1
    x[19]     c21       1
    x[19]     c23       1
    x[19]     c24       1
    x[19]     c26       1
    x[19]     OBJ       1
    x[20]     c1        1
    x[20]     c10       1
    x[20]     c19       1
    x[20]     c21       1
    x[20]     c27       1
    x[20]     c28       1
    x[20]     c36       1
    x[20]     c38       1
    x[20]     OBJ       1
RHS
    rhs       c1        1
    rhs       c2        1
    rhs       c3        1
    rhs       c4        1
    rhs       c5        1
    rhs       c6        1
    rhs       c7        1
    rhs       c8        1
    rhs       c9        1
    rhs       c10       1
    rhs       c11       1
    rhs       c12       1
    rhs       c13       1
    rhs       c14       1
    rhs       c15       1
    rhs       c16       1
    rhs       c17       1
    rhs       c18       1
    rhs       c19       1
    rhs       c20       1
    rhs       c21       1
    rhs       c22       1
    rhs       c23       1
    rhs       c24       1
    rhs       c25       1
    rhs       c26       1
    rhs       c27       1
    rhs       c28       1
    rhs       c29       1
    rhs       c30       1
    rhs       c31       1
    rhs       c32       1
    rhs       c33       1
    rhs       c34       1
    rhs       c35       1
    rhs       c36       1
    rhs       c37       1
    rhs       c38       1
    rhs       c39       1
    rhs       c40       1
RANGES
BOUNDS
 BV bounds    x[1]
 BV bounds    x[2]
 BV bounds    x[3]
 BV bounds    x[4]
 BV bounds    x[5]
 BV bounds    x[6]
 BV bounds    x[7]
 BV bounds    x[8]
 BV bounds    x[9]
 BV bounds    x[10]
 BV bounds    x[11]
 BV bounds    x[12]
 BV bounds    x[13]
 BV bounds    x[14]
 BV bounds    x[15]
 BV bounds    x[16]
 BV bounds    x[17]
 BV bounds    x[18]
 BV bounds    x[19]
 BV bounds    x[20]
ENDATA
